
(set-logic ALL) 

(declare-datatype MyList ((Nil) (Cons (head Real) (tail MyList)) )) 
(declare-fun l0 () MyList) 
(declare-fun l1 () MyList) 
(declare-fun l2 () MyList) 
(declare-fun l3 () MyList) 
(declare-fun i0 () Real) 
(declare-fun i1 () Real) 
(assert (not (= l3 Nil)) )
(assert (is-Cons Nil) )
(assert (is-Cons l0) )
(assert (is-Nil Nil) )
(assert (and (is-Cons Nil) (= l2 Nil) (= l0 Nil) (= l1 Nil)) )
(assert (and (= l1 l3) (= l0 l1) (is-Nil l3)) )
(assert (or (is-Cons Nil) (is-Cons Nil) (= l0 Nil)) )
(assert (and (= l1 Nil) (= l1 l3) (= l1 Nil) (= l1 l3)) )
(check-sat)
